presolving:
(round 1, fast)       3249 del vars, 9764 del conss, 0 add conss, 2192 chg bounds, 11179 chg sides, 9045 chg coeffs, 0 upgd conss, 0 impls, 2298 clqs
(round 2, fast)       3297 del vars, 10707 del conss, 0 add conss, 2194 chg bounds, 11190 chg sides, 9055 chg coeffs, 0 upgd conss, 0 impls, 2278 clqs
(round 3, fast)       3319 del vars, 10719 del conss, 0 add conss, 2194 chg bounds, 12188 chg sides, 10053 chg coeffs, 0 upgd conss, 0 impls, 2275 clqs
(round 4, exhaustive) 3319 del vars, 11017 del conss, 0 add conss, 2225 chg bounds, 12947 chg sides, 10812 chg coeffs, 0 upgd conss, 0 impls, 2275 clqs
(round 5, fast)       3321 del vars, 11019 del conss, 0 add conss, 2225 chg bounds, 13035 chg sides, 10900 chg coeffs, 0 upgd conss, 2 impls, 2273 clqs
(round 6, exhaustive) 3321 del vars, 11019 del conss, 0 add conss, 2241 chg bounds, 13050 chg sides, 10915 chg coeffs, 0 upgd conss, 2 impls, 2273 clqs
(round 7, exhaustive) 3321 del vars, 11019 del conss, 0 add conss, 2241 chg bounds, 13055 chg sides, 10920 chg coeffs, 6934 upgd conss, 2 impls, 2273 clqs
(round 8, medium)     3439 del vars, 11214 del conss, 0 add conss, 2241 chg bounds, 13055 chg sides, 10920 chg coeffs, 6934 upgd conss, 1781 impls, 2111 clqs
(round 9, fast)       3439 del vars, 11258 del conss, 0 add conss, 2241 chg bounds, 13055 chg sides, 10920 chg coeffs, 6934 upgd conss, 1781 impls, 2111 clqs
   (0.4s) probing: 1000/3444 (29.0%) - 0 fixings, 0 aggregations, 562 implications, 0 bound changes
   (0.4s) probing: 1001/3444 (29.1%) - 0 fixings, 0 aggregations, 563 implications, 0 bound changes
   (0.4s) probing aborted: 1000/1000 successive useless probings
   Deactivated symmetry handling methods, since SCIP was built without symmetry detector (SYM=none).
presolving (10 rounds: 10 fast, 5 medium, 4 exhaustive):
 3441 deleted vars, 11265 deleted constraints, 0 added constraints, 2241 tightened bounds, 0 added holes, 13055 changed sides, 10920 changed coefficients
 2170 implications, 2283 cliques
presolved problem has 5061 variables (3444 bin, 0 int, 0 impl, 1617 cont) and 13160 constraints
   1666 constraints of type <varbound>
   2109 constraints of type <setppc>
   6472 constraints of type <linear>
   2913 constraints of type <logicor>
transformed objective value is always integral (scale: 1)
Presolving Time: 0.43

 time | node  | left  |LP iter|LP it/n|mem/heur|mdpt |vars |cons |rows |cuts |sepa|confs|strbr|  dualbound   | primalbound  |  gap   | compl. 
  0.6s|     1 |     0 |   268 |     - |   134M |   0 |5061 |  13k|  13k|   0 |  0 |   4 |   0 | 2.242101e+01 |      --      |    Inf | unknown
  0.8s|     1 |     0 |   929 |     - |   137M |   0 |5061 |  13k|  13k|   1 |  1 |   4 |   0 | 2.320038e+01 |      --      |    Inf | unknown
r 0.8s|     1 |     0 |   929 |     - |shifting|   0 |5061 |  13k|  13k|   1 |  1 |   4 |   0 | 2.320038e+01 | 8.700000e+01 | 274.99%| unknown
  0.8s|     1 |     0 |   984 |     - |   138M |   0 |5061 |  13k|  13k|   4 |  2 |   4 |   0 | 2.500039e+01 | 8.700000e+01 | 247.99%| unknown
i 0.8s|     1 |     0 |  1103 |     - |  oneopt|   0 |5061 |  13k|4000 |   4 |  2 |   4 |   0 | 2.500039e+01 | 3.800000e+01 |  52.00%| unknown
  0.9s|     1 |     0 |  1103 |     - |   138M |   0 |5061 |  13k|4000 |   4 |  2 |   4 |   0 | 2.500039e+01 | 3.800000e+01 |  52.00%| unknown
  0.9s|     1 |     0 |  1103 |     - |   138M |   0 |5061 |  13k|3276 |   4 |  2 |   4 |   0 | 2.500039e+01 | 3.800000e+01 |  52.00%| unknown
  0.9s|     1 |     0 |  1109 |     - |   138M |   0 |5061 |  11k|2779 |   6 |  3 |   4 |   0 | 2.500039e+01 | 3.800000e+01 |  52.00%| unknown
  0.9s|     1 |     0 |  1109 |     - |   139M |   0 |5061 |  11k|2769 |   6 |  4 |   4 |   0 | 2.500039e+01 | 3.800000e+01 |  52.00%| unknown
  0.9s|     1 |     0 |  1115 |     - |   139M |   0 |5061 |  11k|2770 |   7 |  5 |   4 |   0 | 2.500039e+01 | 3.800000e+01 |  52.00%| unknown
  0.9s|     1 |     0 |  1123 |     - |   139M |   0 |5061 |  11k|2771 |   8 |  6 |   4 |   0 | 2.500039e+01 | 3.800000e+01 |  52.00%| unknown
  0.9s|     1 |     0 |  1128 |     - |   140M |   0 |5061 |  11k|2772 |   9 |  7 |   4 |   0 | 2.500039e+01 | 3.800000e+01 |  52.00%| unknown
  0.9s|     1 |     0 |  1156 |     - |   140M |   0 |5061 |  11k|2773 |  10 |  8 |   4 |   0 | 2.533372e+01 | 3.800000e+01 |  50.00%| unknown
  0.9s|     1 |     0 |  1181 |     - |   140M |   0 |5061 |  11k|2774 |  11 |  9 |   4 |   0 | 2.600034e+01 | 3.800000e+01 |  46.15%| unknown
  1.0s|     1 |     0 |  1183 |     - |   140M |   0 |5061 |4544 |2774 |  11 | 11 |   4 |   0 | 2.600034e+01 | 3.800000e+01 |  46.15%| unknown
(run 1, node 1) restarting after 2646 global fixings of integer variables

(restart) converted 9 cuts from the global cut pool into linear constraints

presolving:
(round 1, fast)       3981 del vars, 1833 del conss, 0 add conss, 1 chg bounds, 17 chg sides, 13964 chg coeffs, 0 upgd conss, 2170 impls, 475 clqs
(round 2, fast)       4047 del vars, 2066 del conss, 0 add conss, 1 chg bounds, 17 chg sides, 13964 chg coeffs, 0 upgd conss, 2170 impls, 396 clqs
(round 3, fast)       4084 del vars, 2145 del conss, 0 add conss, 1 chg bounds, 17 chg sides, 13972 chg coeffs, 0 upgd conss, 2170 impls, 377 clqs
(round 4, fast)       4102 del vars, 2148 del conss, 0 add conss, 1 chg bounds, 17 chg sides, 13972 chg coeffs, 0 upgd conss, 2170 impls, 377 clqs
(round 5, medium)     4117 del vars, 2173 del conss, 0 add conss, 1 chg bounds, 17 chg sides, 13972 chg coeffs, 0 upgd conss, 2180 impls, 362 clqs
(round 6, fast)       4128 del vars, 2189 del conss, 0 add conss, 1 chg bounds, 17 chg sides, 13972 chg coeffs, 0 upgd conss, 2180 impls, 361 clqs
(round 7, fast)       4130 del vars, 2189 del conss, 0 add conss, 1 chg bounds, 17 chg sides, 13972 chg coeffs, 0 upgd conss, 2180 impls, 361 clqs
(round 8, exhaustive) 4130 del vars, 2193 del conss, 0 add conss, 1 chg bounds, 21 chg sides, 13972 chg coeffs, 0 upgd conss, 2180 impls, 361 clqs
(round 9, exhaustive) 4130 del vars, 2193 del conss, 0 add conss, 1 chg bounds, 21 chg sides, 13972 chg coeffs, 21 upgd conss, 2180 impls, 361 clqs
(round 10, exhaustive) 4132 del vars, 2193 del conss, 0 add conss, 1 chg bounds, 21 chg sides, 13975 chg coeffs, 21 upgd conss, 2197 impls, 360 clqs
(round 11, fast)       4132 del vars, 2196 del conss, 0 add conss, 1 chg bounds, 21 chg sides, 13975 chg coeffs, 21 upgd conss, 2197 impls, 361 clqs
(round 12, medium)     4132 del vars, 2196 del conss, 0 add conss, 1 chg bounds, 23 chg sides, 13977 chg coeffs, 21 upgd conss, 2197 impls, 361 clqs
presolving (13 rounds: 13 fast, 6 medium, 4 exhaustive):
 4132 deleted vars, 2196 deleted constraints, 0 added constraints, 1 tightened bounds, 0 added holes, 23 changed sides, 13978 changed coefficients
 2197 implications, 361 cliques
presolved problem has 929 variables (681 bin, 0 int, 0 impl, 248 cont) and 2367 constraints
    264 constraints of type <varbound>
      3 constraints of type <knapsack>
    254 constraints of type <setppc>
   1101 constraints of type <linear>
    745 constraints of type <logicor>
transformed objective value is always integral (scale: 1)
Presolving Time: 0.47

 time | node  | left  |LP iter|LP it/n|mem/heur|mdpt |vars |cons |rows |cuts |sepa|confs|strbr|  dualbound   | primalbound  |  gap   | compl. 
  1.1s|     1 |     0 |  1459 |     - |   140M |   0 | 929 |2367 |2357 |   0 |  0 |  16 |   0 | 2.600034e+01 | 3.800000e+01 |  46.15%| unknown
  1.1s|     1 |     0 |  1505 |     - |   140M |   0 | 929 |2367 |2360 |   3 |  1 |  16 |   0 | 2.625023e+01 | 3.800000e+01 |  44.76%| unknown
r 1.1s|     1 |     0 |  1505 |     - |shifting|   0 | 929 |2365 |2360 |   3 |  1 |  16 |   0 | 2.625023e+01 | 3.700000e+01 |  40.95%| unknown
  1.1s|     1 |     0 |  1564 |     - |   141M |   0 | 929 |2365 |2363 |   6 |  2 |  16 |   0 | 2.626901e+01 | 3.700000e+01 |  40.85%| unknown
i 1.1s|     1 |     0 |  1629 |     - |  oneopt|   0 | 929 |2365 |2363 |   6 |  2 |  16 |   0 | 2.626901e+01 | 3.600000e+01 |  37.04%| unknown
  1.1s|     1 |     0 |  1669 |     - |   141M |   0 | 929 |2365 |2365 |   8 |  3 |  16 |   0 | 2.670373e+01 | 3.600000e+01 |  34.81%| unknown
  1.2s|     1 |     0 |  1670 |     - |   141M |   0 | 929 |2365 |2366 |   9 |  4 |  16 |   0 | 2.670373e+01 | 3.600000e+01 |  34.81%| unknown
  1.2s|     1 |     0 |  1693 |     - |   142M |   0 | 929 |2365 |2367 |  10 |  5 |  16 |   0 | 2.685782e+01 | 3.600000e+01 |  34.04%| unknown
  1.2s|     1 |     0 |  1701 |     - |   142M |   0 | 929 |2365 |2369 |  12 |  6 |  16 |   0 | 2.685786e+01 | 3.600000e+01 |  34.04%| unknown
  1.2s|     1 |     0 |  1760 |     - |   142M |   0 | 929 |2365 |2370 |  13 |  7 |  16 |   0 | 2.685987e+01 | 3.600000e+01 |  34.03%| unknown
  1.2s|     1 |     0 |  1762 |     - |   142M |   0 | 929 |2365 |2371 |  14 |  8 |  16 |   0 | 2.685987e+01 | 3.600000e+01 |  34.03%| unknown
  1.2s|     1 |     0 |  1803 |     - |   142M |   0 | 929 |2365 |2372 |  15 |  9 |  16 |   0 | 2.700067e+01 | 3.600000e+01 |  33.33%| unknown
  1.3s|     1 |     0 |  2090 |     - |   143M |   0 | 929 |2340 |2372 |  15 | 11 |  27 |   2 | 3.151852e+01 | 3.600000e+01 |  14.22%| unknown
  1.3s|     1 |     0 |  2090 |     - |   143M |   0 | 929 |2340 |2330 |  15 | 11 |  27 |   2 | 3.151852e+01 | 3.600000e+01 |  14.22%| unknown
  1.3s|     1 |     0 |  2107 |     - |   143M |   0 | 929 |2337 |2331 |  17 | 12 |  27 |   2 | 3.151852e+01 | 3.600000e+01 |  14.22%| unknown
 time | node  | left  |LP iter|LP it/n|mem/heur|mdpt |vars |cons |rows |cuts |sepa|confs|strbr|  dualbound   | primalbound  |  gap   | compl. 
  1.3s|     1 |     0 |  2157 |     - |   143M |   0 | 929 |2337 |2332 |  18 | 13 |  27 |   2 | 3.151852e+01 | 3.600000e+01 |  14.22%| unknown
  1.3s|     1 |     0 |  2158 |     - |   143M |   0 | 929 |2330 |2332 |  18 | 13 |  27 |   2 | 3.151852e+01 | 3.600000e+01 |  14.22%| unknown
  1.3s|     1 |     0 |  2207 |     - |   144M |   0 | 929 |2330 |2331 |  21 | 14 |  27 |   2 | 3.400029e+01 | 3.600000e+01 |   5.88%| unknown
  1.3s|     1 |     0 |  2207 |     - |   144M |   0 | 929 |2330 | 385 |  21 | 14 |  27 |   2 | 3.400029e+01 | 3.600000e+01 |   5.88%| unknown
  1.3s|     1 |     0 |  2210 |     - |   144M |   0 | 929 |1012 | 385 |  21 | 15 |  27 |   2 | 3.400029e+01 | 3.600000e+01 |   5.88%| unknown
  1.3s|     1 |     0 |  2268 |     - |   144M |   0 | 929 |1012 | 354 |  23 | 16 |  27 |   2 | 3.500000e+01 | 3.600000e+01 |   2.86%| unknown
  1.3s|     1 |     0 |  2268 |     - |   144M |   0 | 929 | 995 | 354 |  23 | 17 |  27 |   2 | 3.500000e+01 | 3.600000e+01 |   2.86%| unknown
  1.3s|     1 |     0 |  2279 |     - |   144M |   0 | 929 | 995 | 357 |  26 | 18 |  27 |   2 | 3.500000e+01 | 3.600000e+01 |   2.86%| unknown
(run 2, node 1) restarting after 563 global fixings of integer variables

(restart) converted 9 cuts from the global cut pool into linear constraints

presolving:
(round 1, fast)       788 del vars, 672 del conss, 0 add conss, 2 chg bounds, 4 chg sides, 867 chg coeffs, 0 upgd conss, 2215 impls, 52 clqs
(round 2, fast)       809 del vars, 710 del conss, 0 add conss, 2 chg bounds, 16 chg sides, 869 chg coeffs, 0 upgd conss, 2215 impls, 52 clqs
(round 3, fast)       809 del vars, 710 del conss, 0 add conss, 3 chg bounds, 16 chg sides, 885 chg coeffs, 0 upgd conss, 2215 impls, 54 clqs
(round 4, fast)       809 del vars, 719 del conss, 0 add conss, 3 chg bounds, 36 chg sides, 896 chg coeffs, 0 upgd conss, 2215 impls, 54 clqs
(round 5, fast)       809 del vars, 719 del conss, 0 add conss, 4 chg bounds, 36 chg sides, 896 chg coeffs, 0 upgd conss, 2215 impls, 54 clqs
(round 6, fast)       809 del vars, 728 del conss, 0 add conss, 4 chg bounds, 56 chg sides, 907 chg coeffs, 0 upgd conss, 2215 impls, 54 clqs
(round 7, fast)       809 del vars, 728 del conss, 0 add conss, 5 chg bounds, 56 chg sides, 907 chg coeffs, 0 upgd conss, 2215 impls, 54 clqs
(round 8, exhaustive) 809 del vars, 728 del conss, 0 add conss, 5 chg bounds, 56 chg sides, 909 chg coeffs, 0 upgd conss, 2215 impls, 54 clqs
(round 9, exhaustive) 809 del vars, 728 del conss, 0 add conss, 5 chg bounds, 56 chg sides, 911 chg coeffs, 0 upgd conss, 2215 impls, 54 clqs
(round 10, exhaustive) 809 del vars, 728 del conss, 0 add conss, 5 chg bounds, 56 chg sides, 913 chg coeffs, 0 upgd conss, 2215 impls, 54 clqs
(round 11, exhaustive) 809 del vars, 728 del conss, 0 add conss, 5 chg bounds, 56 chg sides, 915 chg coeffs, 0 upgd conss, 2215 impls, 54 clqs
(round 12, exhaustive) 809 del vars, 728 del conss, 0 add conss, 5 chg bounds, 56 chg sides, 917 chg coeffs, 0 upgd conss, 2215 impls, 54 clqs
(round 13, exhaustive) 809 del vars, 728 del conss, 0 add conss, 5 chg bounds, 56 chg sides, 919 chg coeffs, 0 upgd conss, 2215 impls, 54 clqs
(round 14, exhaustive) 809 del vars, 728 del conss, 0 add conss, 5 chg bounds, 56 chg sides, 921 chg coeffs, 0 upgd conss, 2215 impls, 54 clqs
(round 15, exhaustive) 809 del vars, 728 del conss, 0 add conss, 5 chg bounds, 56 chg sides, 923 chg coeffs, 0 upgd conss, 2215 impls, 54 clqs
(round 16, exhaustive) 809 del vars, 729 del conss, 0 add conss, 5 chg bounds, 57 chg sides, 923 chg coeffs, 0 upgd conss, 2215 impls, 54 clqs
(round 17, exhaustive) 809 del vars, 729 del conss, 0 add conss, 5 chg bounds, 57 chg sides, 923 chg coeffs, 12 upgd conss, 2215 impls, 54 clqs
(round 18, medium)     809 del vars, 729 del conss, 2 add conss, 5 chg bounds, 61 chg sides, 929 chg coeffs, 12 upgd conss, 2221 impls, 54 clqs
(round 19, fast)       809 del vars, 730 del conss, 2 add conss, 5 chg bounds, 61 chg sides, 929 chg coeffs, 12 upgd conss, 2221 impls, 54 clqs
(round 20, exhaustive) 809 del vars, 730 del conss, 2 add conss, 5 chg bounds, 61 chg sides, 930 chg coeffs, 12 upgd conss, 2221 impls, 54 clqs
(round 21, exhaustive) 809 del vars, 730 del conss, 2 add conss, 5 chg bounds, 61 chg sides, 931 chg coeffs, 12 upgd conss, 2221 impls, 54 clqs
(round 22, exhaustive) 809 del vars, 730 del conss, 2 add conss, 5 chg bounds, 61 chg sides, 932 chg coeffs, 12 upgd conss, 2221 impls, 54 clqs
(round 23, exhaustive) 809 del vars, 730 del conss, 2 add conss, 5 chg bounds, 61 chg sides, 933 chg coeffs, 12 upgd conss, 2221 impls, 54 clqs
(round 24, exhaustive) 809 del vars, 730 del conss, 2 add conss, 5 chg bounds, 61 chg sides, 934 chg coeffs, 12 upgd conss, 2221 impls, 54 clqs
(round 25, exhaustive) 809 del vars, 730 del conss, 2 add conss, 5 chg bounds, 61 chg sides, 935 chg coeffs, 12 upgd conss, 2221 impls, 54 clqs
(round 26, exhaustive) 809 del vars, 730 del conss, 2 add conss, 5 chg bounds, 61 chg sides, 936 chg coeffs, 12 upgd conss, 2221 impls, 54 clqs
(round 27, exhaustive) 809 del vars, 734 del conss, 2 add conss, 5 chg bounds, 61 chg sides, 943 chg coeffs, 12 upgd conss, 2221 impls, 54 clqs
(round 28, exhaustive) 810 del vars, 734 del conss, 2 add conss, 5 chg bounds, 61 chg sides, 950 chg coeffs, 12 upgd conss, 2221 impls, 54 clqs
(round 29, fast)       810 del vars, 736 del conss, 2 add conss, 5 chg bounds, 64 chg sides, 951 chg coeffs, 12 upgd conss, 2221 impls, 54 clqs
(round 30, exhaustive) 814 del vars, 736 del conss, 2 add conss, 5 chg bounds, 64 chg sides, 951 chg coeffs, 12 upgd conss, 2221 impls, 52 clqs
(round 31, fast)       814 del vars, 742 del conss, 2 add conss, 5 chg bounds, 64 chg sides, 951 chg coeffs, 12 upgd conss, 2221 impls, 52 clqs
presolving (32 rounds: 32 fast, 22 medium, 21 exhaustive):
 814 deleted vars, 742 deleted constraints, 2 added constraints, 5 tightened bounds, 0 added holes, 64 changed sides, 951 changed coefficients
 2221 implications, 52 cliques
presolved problem has 116 variables (98 bin, 0 int, 0 impl, 18 cont) and 264 constraints
     63 constraints of type <varbound>
      4 constraints of type <knapsack>
     50 constraints of type <setppc>
     94 constraints of type <linear>
     53 constraints of type <logicor>
transformed objective value is always integral (scale: 1)
Presolving Time: 0.48

 time | node  | left  |LP iter|LP it/n|mem/heur|mdpt |vars |cons |rows |cuts |sepa|confs|strbr|  dualbound   | primalbound  |  gap   | compl. 
  1.3s|     1 |     0 |  2306 |     - |   145M |   0 | 116 | 274 | 258 |   0 |  0 |  39 |   2 | 3.500000e+01 | 3.600000e+01 |   2.86%| unknown
r 1.3s|     1 |     0 |  2306 |     - |shifting|   0 | 116 | 274 | 213 |   0 |  0 |  39 |   2 | 3.500000e+01 | 3.600000e+01 |   2.86%| unknown
  1.3s|     1 |     0 |  2306 |     - |   145M |   0 | 116 | 274 | 213 |   0 |  0 |  39 |   2 | 3.500000e+01 | 3.600000e+01 |   2.86%| unknown
i 1.3s|     1 |     0 |  2311 |     - |  oneopt|   0 | 116 | 268 | 213 |   0 |  0 |  39 |   2 | 3.500000e+01 | 3.500000e+01 |   0.00%| unknown
  1.3s|     1 |     0 |  2311 |     - |   145M |   0 | 116 | 268 | 213 |   0 |  0 |  39 |   2 | 3.500000e+01 | 3.500000e+01 |   0.00%| unknown

SCIP Status        : problem is solved [optimal solution found]
Solving Time (sec) : 1.32
Solving Nodes      : 1 (total of 3 nodes in 3 runs)
Primal Bound       : +3.50000000000000e+01 (10 solutions)
Dual Bound         : +3.50000000000000e+01
Gap                : 0.00 %
Root classes: ['0', '1', '38', '39', '52', '54', '55', '56', '57', '58', '59', '60', '61', '62', '63', '64', '65', '66', '67', '68', '69', '70', '71', '72', '73', '74', '75', '76', '77', '78', '79', '80', '81']
Status: OPTIMAL
